
Gurobi 11.0.0 (win64) logging started Tue May 21 17:29:11 2024

Set parameter LogFile to value "./Results/StripPacking-ManyRuns/Logs/RU-111-StripPacking-15-1.log"
Set parameter TimeLimit to value 3600
Set parameter Cuts to value 1
Set parameter Presolve to value 1
Set parameter Heuristics to value 1
Set parameter LPWarmStart to value 2
Gurobi Optimizer version 11.0.0 build v11.0.0rc2 (win64 - Windows 10.0 (19045.2))

CPU model: Intel(R) Core(TM) i9-10980XE CPU @ 3.00GHz, instruction set [SSE2|AVX|AVX2|AVX512]
Thread count: 18 physical cores, 36 logical processors, using up to 18 threads

Optimize a model with 1590 rows, 451 columns and 4230 nonzeros
Model fingerprint: 0x21125acd
Variable types: 31 continuous, 420 integer (420 binary)
Coefficient statistics:
  Matrix range     [1e+00, 1e+04]
  Objective range  [1e+00, 1e+00]
  Bounds range     [1e+00, 1e+04]
  RHS range        [1e+00, 1e+04]

Warning: Completing partial solution with 420 unfixed non-continuous variables out of 420
User MIP start produced solution with objective 72 (0.00s)
User MIP start produced solution with objective 72 (0.00s)
Loaded user MIP start with objective 72

Presolve removed 210 rows and 0 columns
Presolve time: 0.00s
Presolved: 1380 rows, 451 columns, 4394 nonzeros
Variable types: 31 continuous, 420 integer (420 binary)

Root relaxation: objective 3.700000e+01, 366 iterations, 0.00 seconds (0.01 work units)

    Nodes    |    Current Node    |     Objective Bounds      |     Work
 Expl Unexpl |  Obj  Depth IntInf | Incumbent    BestBd   Gap | It/Node Time

     0     0   37.00000    0   30   72.00000   37.00000  48.6%     -    0s
H    0     0                      71.0000000   37.00000  47.9%     -    0s
     0     0   37.00000    0   53   71.00000   37.00000  47.9%     -    0s
     0     0   37.00000    0   50   71.00000   37.00000  47.9%     -    0s
     0     0   37.00000    0   32   71.00000   37.00000  47.9%     -    0s
     0     0   37.00000    0   34   71.00000   37.00000  47.9%     -    0s
     0     0   37.00000    0   24   71.00000   37.00000  47.9%     -    0s
H    0     0                      70.0000000   37.00000  47.1%     -    0s
     0     0   37.00000    0   27   70.00000   37.00000  47.1%     -    0s
     0     0   37.00000    0   29   70.00000   37.00000  47.1%     -    0s
H    0     0                      69.0000000   37.00000  46.4%     -    0s
     0     0   37.00000    0   29   69.00000   37.00000  46.4%     -    0s
     0     0   37.00000    0   30   69.00000   37.00000  46.4%     -    0s
     0     0   37.00000    0   20   69.00000   37.00000  46.4%     -    0s
     0     2   37.00000    0   18   69.00000   37.00000  46.4%     -    0s
H   81    84                      61.0000000   37.00000  39.3%  25.6    0s
H  162   145                      59.0000000   37.00000  37.3%  18.2    0s
H  207   199                      57.0000000   37.00000  35.1%  22.4    1s
H  216   199                      56.0000000   37.00000  33.9%  22.4    1s
H  366   335                      55.0000000   37.00000  32.7%  27.0    2s
H  644   574                      55.0000000   37.00000  32.7%  26.5    3s
H  645   574                      54.0000000   37.00000  31.5%  26.5    3s
H  656   574                      52.0000000   37.00000  28.8%  27.6    3s
  1014   923   37.00000   11   16   52.00000   37.00000  28.8%  27.0    5s
H 1079   923                      52.0000000   37.00000  28.8%  26.3    5s
H 1165   923                      50.0000000   37.00000  26.0%  26.1    5s
H 1302  1163                      50.0000000   37.00000  26.0%  26.4    6s
H 1636  1163                      49.0000000   37.00000  24.5%  26.3    7s
H 1979  1783                      49.0000000   37.00000  24.5%  24.6    8s
  3873  1903   37.00000   20   43   49.00000   37.00000  24.5%  25.3   10s
  4200  1934   46.00000   27   30   49.00000   37.00000  24.5%  26.9   16s
  4352  1978   47.00000   30   30   49.00000   37.00000  24.5%  27.8   20s
  4964  1917   47.00000   25   37   49.00000   37.00000  24.5%  30.5   25s
  5632  1802 infeasible   27        49.00000   37.00000  24.5%  33.7   30s
  6982  1632   37.00000   29   38   49.00000   37.00000  24.5%  38.7   35s
H 8225  1231                      48.0000000   37.00000  22.9%  42.3   36s
H 8336  1169                      48.0000000   37.00000  22.9%  42.5   38s
  8816  1086 infeasible   31        48.00000   37.00000  22.9%  44.3   41s
  9706  1178   43.00000   35   30   48.00000   37.00000  22.9%  46.4   46s
 11605  1411 infeasible   40        48.00000   37.00000  22.9%  50.7   50s
 12857  1572   39.00000   26   32   48.00000   37.00000  22.9%  52.6   56s
 14639  1646 infeasible   37        48.00000   37.00000  22.9%  55.6   62s
 15415  1807   46.00000   29   41   48.00000   37.00000  22.9%  56.0   66s
 16818  1906   41.00000   31   38   48.00000   37.00000  22.9%  57.1   71s
 18802  2227   46.00000   35   42   48.00000   37.00000  22.9%  58.7   76s
 19966  2290 infeasible   35        48.00000   37.00000  22.9%  59.3   82s
 21095  2307   39.00000   24   36   48.00000   37.00000  22.9%  59.3   86s
 21611  2297 infeasible   34        48.00000   37.00000  22.9%  59.8   92s
 21798  2282   39.00000   19   37   48.00000   37.00000  22.9%  59.9  100s
 22996  2362   39.00000   26   29   48.00000   38.00000  20.8%  59.7  106s
 23332  2289 infeasible   27        48.00000   38.00000  20.8%  59.7  112s
*27026  1930              34      47.0000000   39.00000  17.0%  59.1  112s
 27256  1899     cutoff   30        47.00000   39.00000  17.0%  59.1  116s
 28246  1909 infeasible   37        47.00000   39.00000  17.0%  59.0  124s
 28277  1831 infeasible   36        47.00000   39.00000  17.0%  59.0  129s
 29646  1823     cutoff   30        47.00000   40.00000  14.9%  59.1  133s
 29690  1768 infeasible   33        47.00000   41.00000  12.8%  59.1  136s
 31063  1774   46.00000   30   44   47.00000   41.00000  12.8%  58.6  141s
 33199  1699 infeasible   37        47.00000   42.00000  10.6%  58.6  148s
 33751  1358   46.00000   33   28   47.00000   43.00000  8.51%  58.7  151s
 35309  1371   46.00000   35   26   47.00000   43.00000  8.51%  58.3  161s
 37215  1133   46.00000   29   25   47.00000   43.00000  8.51%  57.5  169s
 37242   922   46.00000   30   20   47.00000   43.00000  8.51%  57.5  178s
 40905   918 infeasible   45        47.00000   43.00000  8.51%  57.2  183s
 40945   902 infeasible   33        47.00000   43.00000  8.51%  57.2  186s
 41059   888   46.00000   35   40   47.00000   46.00000  2.13%  57.2  193s
 41113   807 infeasible   36        47.00000   46.00000  2.13%  57.2  195s
 42319   806   46.00000   28   20   47.00000   46.00000  2.13%  56.8  203s
 42360   665   46.00000   29   19   47.00000   46.00000  2.13%  56.8  207s
 44440   659   46.00000   32   28   47.00000   46.00000  2.13%  56.4  213s
 44537   573 infeasible   26        47.00000   46.00000  2.13%  56.4  217s
 46098   541 infeasible   31        47.00000   46.00000  2.13%  55.9  224s
 46692   388   46.00000   32   29   47.00000   46.00000  2.13%  55.8  228s
 48805   310 infeasible   25        47.00000   46.00000  2.13%  55.4  235s
 51162   171   46.00000   36   20   47.00000   46.00000  2.13%  55.0  245s
 51343   160 infeasible   37        47.00000   46.00000  2.13%  55.0  250s
 53128    48 infeasible   27        47.00000   46.00000  2.13%  54.9  258s
 53207     7   46.00000   24   29   47.00000   46.00000  2.13%  54.9  261s

Cutting planes:
  Learned: 1961
  Gomory: 11
  Cover: 76
  Implied bound: 9
  Clique: 14
  MIR: 173
  StrongCG: 10
  Flow cover: 268
  GUB cover: 38
  Zero half: 2
  Relax-and-lift: 66

Explored 53805 nodes (2954775 simplex iterations) in 264.98 seconds (247.05 work units)
Thread count was 18 (of 36 available processors)

Solution count 10: 47 47 48 ... 52

Optimal solution found (tolerance 1.00e-04)
Best objective 4.700000000000e+01, best bound 4.700000000000e+01, gap 0.0000%

Gurobi 11.0.0 (win64) logging started Tue Jun 18 11:33:39 2024

Set parameter LogFile to value "./Results/StripPacking-ManyRuns/Logs/RU-111-StripPacking-15-1.log"
Set parameter TimeLimit to value 3600
Set parameter Cuts to value 1
Set parameter Presolve to value 1
Set parameter Heuristics to value 1
Set parameter LPWarmStart to value 2
Gurobi Optimizer version 11.0.0 build v11.0.0rc2 (win64 - Windows 10.0 (19045.2))

CPU model: Intel(R) Core(TM) i9-10980XE CPU @ 3.00GHz, instruction set [SSE2|AVX|AVX2|AVX512]
Thread count: 18 physical cores, 36 logical processors, using up to 18 threads

Optimize a model with 1590 rows, 451 columns and 4230 nonzeros
Model fingerprint: 0x9e82076b
Variable types: 31 continuous, 420 integer (420 binary)
Coefficient statistics:
  Matrix range     [1e+00, 1e+04]
  Objective range  [1e+00, 1e+00]
  Bounds range     [1e+00, 1e+04]
  RHS range        [1e+00, 1e+04]

Warning: Completing partial solution with 420 unfixed non-continuous variables out of 420
User MIP start produced solution with objective 77 (0.00s)
Loaded user MIP start with objective 77

Presolve removed 212 rows and 1 columns
Presolve time: 0.02s
Presolved: 1378 rows, 450 columns, 4383 nonzeros
Variable types: 31 continuous, 419 integer (419 binary)

Root relaxation: objective 5.000000e+01, 378 iterations, 0.00 seconds (0.01 work units)

    Nodes    |    Current Node    |     Objective Bounds      |     Work
 Expl Unexpl |  Obj  Depth IntInf | Incumbent    BestBd   Gap | It/Node Time

     0     0   50.00000    0    4   77.00000   50.00000  35.1%     -    0s
H    0     0                      68.0000000   50.00000  26.5%     -    0s
H    0     0                      67.0000000   50.00000  25.4%     -    0s
H    0     0                      59.0000000   50.00000  15.3%     -    0s
     0     0   50.00000    0    9   59.00000   50.00000  15.3%     -    0s
     0     0   50.00000    0   11   59.00000   50.00000  15.3%     -    0s
H    0     0                      56.0000000   50.00000  10.7%     -    0s
H    0     0                      50.0000000   50.00000  0.00%     -    0s
     0     0   50.00000    0    2   50.00000   50.00000  0.00%     -    0s

Cutting planes:
  Learned: 2
  Gomory: 4
  Cover: 1
  MIR: 25
  StrongCG: 2
  GUB cover: 2
  RLT: 2
  Relax-and-lift: 3

Explored 1 nodes (1673 simplex iterations) in 0.16 seconds (0.08 work units)
Thread count was 18 (of 36 available processors)

Solution count 6: 50 56 59 ... 77

Optimal solution found (tolerance 1.00e-04)
Best objective 5.000000000000e+01, best bound 5.000000000000e+01, gap 0.0000%

Gurobi 11.0.0 (win64) logging started Tue Jul  2 17:23:06 2024

Set parameter LogFile to value "./Results/StripPacking-ManyRuns/Logs/RU-111-StripPacking-15-1.log"
Set parameter TimeLimit to value 3600
Set parameter Cuts to value 1
Set parameter Presolve to value 1
Set parameter Heuristics to value 1
Set parameter LPWarmStart to value 2
Gurobi Optimizer version 11.0.0 build v11.0.0rc2 (win64 - Windows 10.0 (19045.2))

CPU model: Intel(R) Core(TM) i9-10980XE CPU @ 3.00GHz, instruction set [SSE2|AVX|AVX2|AVX512]
Thread count: 18 physical cores, 36 logical processors, using up to 18 threads

Optimize a model with 1590 rows, 451 columns and 4230 nonzeros
Model fingerprint: 0x9e82076b
Variable types: 31 continuous, 420 integer (420 binary)
Coefficient statistics:
  Matrix range     [1e+00, 1e+04]
  Objective range  [1e+00, 1e+00]
  Bounds range     [1e+00, 1e+04]
  RHS range        [1e+00, 1e+04]

Warning: Completing partial solution with 420 unfixed non-continuous variables out of 420
User MIP start produced solution with objective 77 (0.00s)
Loaded user MIP start with objective 77

Presolve removed 212 rows and 1 columns
Presolve time: 0.00s
Presolved: 1378 rows, 450 columns, 4383 nonzeros
Variable types: 31 continuous, 419 integer (419 binary)

Root relaxation: objective 5.000000e+01, 378 iterations, 0.02 seconds (0.01 work units)

    Nodes    |    Current Node    |     Objective Bounds      |     Work
 Expl Unexpl |  Obj  Depth IntInf | Incumbent    BestBd   Gap | It/Node Time

     0     0   50.00000    0    4   77.00000   50.00000  35.1%     -    0s
H    0     0                      68.0000000   50.00000  26.5%     -    0s
H    0     0                      67.0000000   50.00000  25.4%     -    0s
H    0     0                      59.0000000   50.00000  15.3%     -    0s
     0     0   50.00000    0    9   59.00000   50.00000  15.3%     -    0s
     0     0   50.00000    0   11   59.00000   50.00000  15.3%     -    0s
H    0     0                      56.0000000   50.00000  10.7%     -    0s
H    0     0                      50.0000000   50.00000  0.00%     -    0s
     0     0   50.00000    0    2   50.00000   50.00000  0.00%     -    0s

Cutting planes:
  Learned: 2
  Gomory: 4
  Cover: 1
  MIR: 25
  StrongCG: 2
  GUB cover: 2
  RLT: 2
  Relax-and-lift: 3

Explored 1 nodes (1673 simplex iterations) in 0.16 seconds (0.08 work units)
Thread count was 18 (of 36 available processors)

Solution count 6: 50 56 59 ... 77

Optimal solution found (tolerance 1.00e-04)
Best objective 5.000000000000e+01, best bound 5.000000000000e+01, gap 0.0000%
